
Gurobi 12.0.2 (win64) logging started Wed Nov 26 15:44:31 2025

Set parameter LogFile to value "resultados DATA_1_n100m10b2d2\instancia_6_log.txt"
Set parameter TimeLimit to value 3600
Gurobi Optimizer version 12.0.2 build v12.0.2rc0 (win64 - Windows 10.0 (19045.2))

CPU model: Intel(R) Core(TM) i5-6300U CPU @ 2.40GHz, instruction set [SSE2|AVX|AVX2]
Thread count: 2 physical cores, 4 logical processors, using up to 4 threads

Non-default parameters:
TimeLimit  3600

Optimize a model with 2610 rows, 3784 columns and 2203785 nonzeros
Model fingerprint: 0x629f03f5
Variable types: 0 continuous, 3784 integer (3784 binary)
Coefficient statistics:
  Matrix range     [1e+00, 1e+00]
  Objective range  [6e-02, 1e-01]
  Bounds range     [1e+00, 1e+00]
  RHS range        [1e+00, 1e+01]
Found heuristic solution: objective 0.9290920
Presolve removed 91 rows and 3592 columns
Presolve time: 1.78s
Presolved: 2519 rows, 192 columns, 64147 nonzeros
Found heuristic solution: objective 0.5690920
Variable types: 0 continuous, 192 integer (192 binary)

Root relaxation: objective 9.615400e-01, 162 iterations, 0.07 seconds (0.04 work units)

    Nodes    |    Current Node    |     Objective Bounds      |     Work
 Expl Unexpl |  Obj  Depth IntInf | Incumbent    BestBd   Gap | It/Node Time

     0     0    0.96154    0   13    0.92909    0.96154  3.49%     -    2s
H    0     0                       0.9309440    0.96154  3.29%     -    2s
     0     0    0.95217    0   29    0.93094    0.95217  2.28%     -    2s
     0     0    0.94672    0   24    0.93094    0.94672  1.69%     -    2s
     0     0    0.94672    0   35    0.93094    0.94672  1.69%     -    2s
H    0     0                       0.9388840    0.94672  0.83%     -    2s
     0     0    0.94662    0   33    0.93888    0.94662  0.82%     -    2s
     0     0    0.94662    0   13    0.93888    0.94662  0.82%     -    2s
     0     0    0.94592    0   23    0.93888    0.94592  0.75%     -    2s
     0     0    0.94407    0   23    0.93888    0.94407  0.55%     -    2s
     0     0    0.94262    0   30    0.93888    0.94262  0.40%     -    2s
     0     0    0.94212    0   28    0.93888    0.94212  0.34%     -    2s
     0     0    0.94136    0   23    0.93888    0.94136  0.26%     -    2s
     0     0    0.94107    0   20    0.93888    0.94107  0.23%     -    2s

Cutting planes:
  Gomory: 3
  Zero half: 1
  Mod-K: 2

Explored 1 nodes (505 simplex iterations) in 2.95 seconds (1.69 work units)
Thread count was 4 (of 4 available processors)

Solution count 6: 0.938884 0.938884 0.930944 ... 0.569092
No other solutions better than 0.938884

Optimal solution found (tolerance 1.00e-04)
Best objective 9.388840000000e-01, best bound 9.388840000000e-01, gap 0.0000%
